20190614 50 0 0 0
20180726 50 4000 0 0
20170712 50 0 0 0
20160622 50 0 0 0
20150702 75 3024 0 0
20140522 50 0 0 0
20130716 200 0 0 0
20120511 220 3000 0 0
20110519 99 2986 0 0
20100601 100 3000 0 0
20090504 0 8000 0 0
20080523 200 0 0 0
20070725 200 0 0 0
